Set parameter TSPort to value 51199
Set parameter TokenServer to value "open-license1.lanl.gov"
Set parameter TimeLimit to value 4096
Set parameter Threads to value 1
Gurobi Optimizer version 10.0.3 build v10.0.3rc0 (linux64)

CPU model: Intel(R) Xeon(R) CPU E5-2695 v4 @ 2.10GHz, instruction set [SSE2|AVX|AVX2]
Thread count: 36 physical cores, 72 logical processors, using up to 1 threads

Optimize a model with 0 rows, 2897 columns and 0 nonzeros
Model fingerprint: 0xebffcdf7
Model has 13447 quadratic objective terms
Variable types: 0 continuous, 2897 integer (2897 binary)
Coefficient statistics:
  Matrix range     [0e+00, 0e+00]
  Objective range  [2e+00, 3e+01]
  QObjective range [8e+00, 8e+00]
  Bounds range     [1e+00, 1e+00]
  RHS range        [0e+00, 0e+00]
Found heuristic solution: objective 0.0000000
Found heuristic solution: objective -4914.000000
Found heuristic solution: objective -17922.00000
Found heuristic solution: objective -17968.00000
Presolve removed 0 rows and 0 columns (presolve time = 7s) ...
Presolve time: 6.56s
Presolved: 13447 rows, 16344 columns, 40341 nonzeros
Variable types: 0 continuous, 16344 integer (16344 binary)

Root simplex log...

Iteration    Objective       Primal Inf.    Dual Inf.      Time
       0   -2.6794000e+04   5.323000e+03   0.000000e+00     10s
     310   -2.6684000e+04   4.789000e+03   0.000000e+00     10s
    3849   -2.5137000e+04   0.000000e+00   0.000000e+00     11s

Root relaxation: objective -2.513700e+04, 3849 iterations, 0.88 seconds (0.03 work units)
Total elapsed time = 10.76s

    Nodes    |    Current Node    |     Objective Bounds      |     Work
 Expl Unexpl |  Obj  Depth IntInf | Incumbent    BestBd   Gap | It/Node Time

     0     0 -25137.000    0 2897 -17968.000 -25137.000  39.9%     -   13s
     0     0 -23496.000    0 3707 -17968.000 -23496.000  30.8%     -   23s
     0     0 -23241.000    0 3850 -17968.000 -23241.000  29.3%     -   27s
     0     0 -23233.000    0 3859 -17968.000 -23233.000  29.3%     -   28s
     0     0 -22962.810    0 4038 -17968.000 -22962.810  27.8%     -   38s
     0     0 -22962.810    0 4003 -17968.000 -22962.810  27.8%     -   48s
     0     2 -22962.810    0 3996 -17968.000 -22962.810  27.8%     -   63s
     8    10 -22922.810    4 4042 -17968.000 -22951.476  27.7%   455   65s
    23    25 -22839.667   12 4127 -17968.000 -22951.476  27.7%   222   70s
    40    42 -22778.167   20 4171 -17968.000 -22951.476  27.7%   161   75s
    56    58 -22710.167   28 4244 -17968.000 -22951.476  27.7%   141   80s
    72    74 -22644.167   36 4338 -17968.000 -22951.476  27.7%   130   85s
    91    93 -22544.167   46 4419 -17968.000 -22951.476  27.7%   119   90s
   110   112 -22456.167   55 4516 -17968.000 -22951.476  27.7%   112   95s
   127   129 -22372.167   64 4596 -17968.000 -22951.476  27.7%   110  100s
   144   146 -22306.500   72 4611 -17968.000 -22951.476  27.7%   106  105s
   160   162 -22239.500   80 4638 -17968.000 -22951.476  27.7%   104  110s
   175   177 -22179.500   88 4699 -17968.000 -22951.476  27.7%   106  115s
   191   193 -22116.000   96 4744 -17968.000 -22951.476  27.7%   104  120s
   210   212 -22040.000  105 4797 -17968.000 -22951.476  27.7%   102  125s
   228   230 -21969.000  114 4854 -17968.000 -22951.476  27.7%   101  130s
   246   248 -21907.000  123 4882 -17968.000 -22951.476  27.7%  99.1  135s
   266   268 -21809.000  133 4933 -17968.000 -22951.476  27.7%  97.8  140s
   286   288 -21732.000  143 5006 -17968.000 -22951.476  27.7%  96.2  145s
   305   307 -21644.000  153 5077 -17968.000 -22951.476  27.7%  95.0  150s
   324   326 -21565.000  162 5149 -17968.000 -22951.476  27.7%  93.5  155s
   344   346 -21483.000  172 5209 -17968.000 -22951.476  27.7%  91.7  160s
   362   364 -21398.000  181 5200 -17968.000 -22951.476  27.7%  90.4  165s
   376   378 -21340.000  188 5232 -17968.000 -22951.476  27.7%  90.4  170s
   396   398 -21250.000  198 5301 -17968.000 -22951.476  27.7%  89.0  175s
   415   417 -21172.000  208 5351 -17968.000 -22951.476  27.7%  88.0  180s
   432   434 -21110.000  216 5338 -17968.000 -22951.476  27.7%  88.2  185s
   450   452 -21035.000  225 5387 -17968.000 -22951.476  27.7%  87.4  190s
   467   469 -20956.000  234 5465 -17968.000 -22951.476  27.7%  86.9  195s
   483   485 -20896.000  242 5477 -17968.000 -22951.476  27.7%  85.9  200s
   502   504 -20834.000  251 5491 -17968.000 -22951.476  27.7%  84.9  205s
   517   519 -20785.000  259 5519 -17968.000 -22951.476  27.7%  84.2  210s
   537   539 -20715.000  269 5536 -17968.000 -22951.476  27.7%  83.1  215s
   553   555 -20659.000  277 5567 -17968.000 -22951.476  27.7%  82.8  220s
   567   569 -20611.000  284 5551 -17968.000 -22951.476  27.7%  82.2  225s
   588   590 -20539.000  294 5551 -17968.000 -22951.476  27.7%  81.6  230s
   606   608 -20467.000  303 5556 -17968.000 -22951.476  27.7%  81.2  235s
   621   623 -20404.167  311 5544 -17968.000 -22951.476  27.7%  80.8  240s
   636   638 -20361.167  318 5579 -17968.000 -22951.476  27.7%  81.0  245s
   653   655 -20309.167  327 5602 -17968.000 -22951.476  27.7%  80.2  250s
   670   672 -20244.167  335 5618 -17968.000 -22951.476  27.7%  79.9  255s
   686   688 -20192.167  343 5604 -17968.000 -22951.476  27.7%  79.7  260s
   702   704 -20132.167  351 5610 -17968.000 -22951.476  27.7%  79.3  265s
   723   725 -20060.167  362 5610 -17968.000 -22951.476  27.7%  78.4  270s
   739   741 -20017.167  370 5620 -17968.000 -22951.476  27.7%  77.7  275s
   754   756 -19970.167  377 5613 -17968.000 -22951.476  27.7%  77.2  280s
   770   772 -19915.167  385 5624 -17968.000 -22951.476  27.7%  77.2  285s
   788   790 -19850.167  394 5652 -17968.000 -22951.476  27.7%  76.7  290s
   808   810 -19781.167  404 5688 -17968.000 -22951.476  27.7%  76.2  295s
   821   823 -19729.167  411 5705 -17968.000 -22951.476  27.7%  76.2  300s
   837   839 -19671.167  419 5715 -17968.000 -22951.476  27.7%  75.8  306s
   850   852 -19633.167  425 5706 -17968.000 -22951.476  27.7%  75.5  310s
   864   866 -19583.167  432 5704 -17968.000 -22951.476  27.7%  75.1  342s
   873   875 -19551.167  437 5706 -17968.000 -22951.476  27.7%  75.0  345s
   892   894 -19494.167  446 5734 -17968.000 -22951.476  27.7%  74.5  350s
   909   911 -19431.667  455 5734 -17968.000 -22951.476  27.7%  74.4  378s
   910   912 -19435.667  455 5739 -17968.000 -22951.476  27.7%  74.4  406s
   925   927 -19396.667  463 5739 -17968.000 -22951.476  27.7%  74.1  410s
   946   948 -19328.667  474 5775 -17968.000 -22951.476  27.7%  73.9  415s
   966   968 -19265.667  484 5781 -17968.000 -22951.476  27.7%  73.5  420s
   987   989 -19230.667  494 5739 -17968.000 -22951.476  27.7%  73.0  425s
  1009  1011 -19162.667  505 5769 -17968.000 -22951.476  27.7%  72.5  430s
  1030  1032 -19091.667  516 5770 -17968.000 -22951.476  27.7%  71.9  435s
  1053  1055 -19021.667  528 5795 -17968.000 -22951.476  27.7%  71.2  440s
  1075  1077 -18973.667  539 5820 -17968.000 -22951.476  27.7%  70.9  445s
  1098  1100 -18923.667  551 5805 -17968.000 -22951.476  27.7%  70.4  450s
  1120  1122 -18875.667  562 5779 -17968.000 -22951.476  27.7%  69.9  455s
  1141  1143 -18835.667  572 5799 -17968.000 -22951.476  27.7%  69.5  460s
  1164  1166 -18787.667  584 5797 -17968.000 -22951.476  27.7%  68.8  465s
  1189  1191 -18756.667  598 5749 -17968.000 -22951.476  27.7%  67.9  470s
  1214  1216 -18742.667  610 5724 -17968.000 -22951.476  27.7%  67.0  475s
  1237  1239 -18693.667  622 5723 -17968.000 -22951.476  27.7%  66.6  480s
  1258  1260 -18627.667  633 5657 -17968.000 -22951.476  27.7%  66.2  485s
  1280  1282 -18572.667  644 5651 -17968.000 -22951.476  27.7%  66.0  490s
  1303  1305 -18528.667  655 5649 -17968.000 -22951.476  27.7%  65.5  495s
  1326  1328 -18467.667  667 5588 -17968.000 -22951.476  27.7%  65.2  500s
  1346  1348 -18417.667  677 5590 -17968.000 -22951.476  27.7%  64.9  505s
H 1352  1352                    -17970.00000 -22951.476  27.7%  64.8  507s
  1364  1366 -18385.167  686 5566 -17970.000 -22951.476  27.7%  64.7  510s
H 1378  1378                    -17976.00000 -22951.476  27.7%  64.3  513s
  1387  1389 -18341.167  697 5537 -17976.000 -22951.476  27.7%  64.2  515s
  1410  1412 -18284.167  709 5525 -17976.000 -22951.476  27.7%  63.7  520s
H 1430  1430                    -17978.00000 -22951.476  27.7%  63.3  524s
  1434  1436 -18240.167  721 5430 -17978.000 -22951.476  27.7%  63.3  525s
  1454  1456 -18199.167  731 5372 -17978.000 -22951.476  27.7%  63.0  530s
  1477  1479 -18140.167  743 5359 -17978.000 -22951.476  27.7%  62.7  535s
  1497  1499 -18105.167  753 5294 -17978.000 -22951.476  27.7%  62.4  540s
H 1508  1508                    -17988.00000 -22951.476  27.6%  62.2  542s
  1520  1522 -18070.167  765 5275 -17988.000 -22951.476  27.6%  61.9  545s
H 1534  1534                    -17998.00000 -22951.476  27.5%  61.6  548s
  1543  1545 -18034.667  777 5225 -17998.000 -22951.476  27.5%  61.6  550s
H 1556  1556                    -18002.00000 -22951.476  27.5%  61.4  553s
H 1563  1555                    -18004.00000 -22951.476  27.5%  61.3  555s
H 1590  1552                    -18010.00000 -22951.476  27.4%  60.9  559s
  1596  1552 -18017.667  782 5181 -18010.000 -22951.476  27.4%  60.9  560s
  1610  1549 -21522.000  168 6724 -18010.000 -22951.143  27.4%  60.6  599s
  1612  1550 -18709.667  619 2897 -18010.000 -22951.143  27.4%  60.5  625s
  1613  1551 -20352.167  320 3708 -18010.000 -22951.143  27.4%  60.5  631s
  1614  1552 -19318.167  476 4370 -18010.000 -22334.167  24.0%  60.5  642s
  1615  1552 -20072.167  361 4765 -18010.000 -21838.042  21.3%  60.4  680s
  1616  1553 -18052.667  774 4951 -18010.000 -21748.001  20.8%  60.4  702s
  1617  1554 -20792.000  257 4999 -18010.000 -21729.740  20.7%  60.3  716s
  1618  1554 -19621.167  427 5092 -18010.000 -21723.610  20.6%  60.3  721s
  1619  1555 -21721.689   38 5077 -18010.000 -21721.689  20.6%  60.3  725s
  1622  1557 -18246.167  719 5133 -18010.000 -21721.152  20.6%  60.2  738s
  1623  1558 -20418.167  310 5651 -18010.000 -21315.813  18.4%  60.1  934s
  1624  1558 -19020.667  530 6140 -18010.000 -21213.495  17.8%  60.1 1169s
  1625  1559 -18973.667  540 6221 -18010.000 -21180.930  17.6%  60.0 1378s
  1626  1560 -19238.667  492 6371 -18010.000 -21172.038  17.6%  60.0 1464s
  1627  1560 -21169.921  121 6370 -18010.000 -21169.921  17.5%  60.0 1502s
  1628  1561 -19924.167  385 6446 -18010.000 -21168.493  17.5%  59.9 1538s
  1629  1562 -20352.167  320 6455 -18010.000 -21167.958  17.5%  59.9 1557s
  1630  1562 -19740.167  410 6511 -18010.000 -21167.633  17.5%  59.9 1568s
  1631  1563 -21167.578   88 6542 -18010.000 -21167.578  17.5%  59.8 1573s
  1632  1564 -20510.000  298 6536 -18010.000 -21167.524  17.5%  59.8 1576s
  1633  1564 -18346.167  696 6554 -18010.000 -21167.489  17.5%  59.8 1580s
  1635  1566 -20790.000  258 6565 -18010.000 -21167.480  17.5%  59.7 1600s
  1636  1566 -19091.667  517 6879 -18010.000 -20861.046  15.8%  59.6 2626s
  1637  1567 -18164.167  738 7513 -18010.000 -20764.343  15.3%  59.6 3629s

Cutting planes:
  Gomory: 93
  MIR: 486
  Flow cover: 2664
  Zero half: 1700
  RLT: 493
  BQP: 847

Explored 1637 nodes (441230 simplex iterations) in 4096.02 seconds (319.26 work units)
Thread count was 1 (of 72 available processors)

Solution count 10: -18010 -18004 -18002 ... -17922

Time limit reached
Best objective -1.801000000000e+04, best bound -2.076400000000e+04, gap 15.2915%

User-callback calls 42338, time in user-callback 4.68 sec

BQP_SOLUTION, 2897, 13447, -6320.000000, 4096.020297, 1, -1, 1, -1, 1, 1, 1, -1, 1, 1, 1, -1, 1, -1, 1, -1, -1, 1, 1, 1, -1, -1, 1, 1, -1, 1, 1, 1, 1, -1, 1, -1, 1, 1, 1, -1, 1, -1, 1, 1, 1, 1, 1, -1, 1, -1, 1, 1, -1, 1, 1, -1, 1, 1, -1, 1, -1, -1, -1, -1, 1, 1, 1, -1, 1, -1, 1, -1, -1, -1, 1, -1, 1, 1, -1, 1, 1, -1, -1, -1, -1, 1, 1, -1, 1, -1, 1, 1, 1, 1, -1, -1, 1, -1, 1, 1, -1, 1, 1, 1, -1, 1, -1, 1, 1, -1, 1, -1, 1, 1, 1, 1, 1, -1, 1, -1, -1, 1, -1, 1, 1, 1, -1, 1, -1, 1, -1, 1, 1, -1, 1, 1, 1, 1, -1, 1, 1, -1, 1, 1, 1, 1, -1, 1, -1, 1, 1, -1, -1, 1, 1, 1, 1, 1, -1, 1, -1, 1, 1, -1, 1, 1, -1, 1, 1, 1, -1, 1, -1, 1, -1, 1, -1, 1, 1, -1, 1, 1, -1, -1, 1, -1, -1, 1, 1, 1, 1, 1, -1, 1, -1, 1, -1, 1, -1, 1, 1, 1, -1, 1, -1, 1, 1, 1, 1, 1, -1, 1, 1, 1, 1, 1, -1, 1, -1, 1, -1, 1, 1, 1, -1, 1, -1, -1, 1, -1, -1, -1, -1, 1, 1, 1, 1, 1, -1, 1, 1, 1, 1, 1, -1, 1, 1, 1, -1, -1, 1, 1, 1, -1, 1, 1, -1, -1, 1, -1, -1, 1, 1, 1, -1, 1, -1, 1, 1, -1, 1, -1, 1, 1, 1, 1, 1, -1, 1, 1, 1, -1, 1, 1, 1, 1, -1, 1, -1, 1, 1, -1, -1, 1, 1, 1, 1, -1, -1, -1, 1, -1, -1, -1, -1, 1, -1, 1, 1, 1, -1, 1, -1, 1, -1, -1, 1, 1, 1, -1, -1, 1, 1, -1, -1, -1, -1, 1, 1, 1, -1, 1, -1, 1, -1, 1, -1, -1, 1, 1, -1, 1, -1, -1, 1, -1, -1, -1, -1, 1, 1, 1, 1, -1, -1, 1, -1, -1, -1, 1, 1, 1, 1, -1, -1, 1, 1, 1, -1, -1, -1, 1, 1, 1, -1, -1, 1, -1, -1, -1, -1, 1, 1, 1, 1, 1, -1, 1, -1, -1, -1, -1, 1, 1, 1, -1, -1, -1, 1, -1, -1, -1, -1, 1, 1, 1, 1, -1, 1, 1, -1, -1, -1, 1, 1, 1, -1, 1, -1, -1, 1, -1, -1, -1, -1, 1, -1, -1, -1, -1, 1, 1, -1, -1, -1, -1, 1, 1, -1, -1, -1, -1, 1, -1, -1, -1, -1, 1, 1, -1, -1, -1, -1, 1, -1, 1, -1, 1, 1, 1, -1, -1, 1, -1, -1, -1, -1, -1, -1, 1, 1, -1, -1, -1, -1, 1, -1, -1, -1, 1, 1, 1, -1, -1, -1, 1, 1, 1, -1, -1, -1, 1, 1, 1, -1, -1, -1, 1, -1, 1, -1, -1, 1, 1, -1, 1, 1, -1, 1, -1, -1, -1, -1, 1, 1, -1, 1, -1, -1, -1, 1, 1, 1, -1, 1, 1, -1, -1, 1, 1, 1, 1, 1, 1, 1, 1, 1, -1, 1, 1, -1, -1, 1, -1, 1, -1, 1, 1, -1, 1, -1, 1, 1, 1, 1, 1, 1, 1, 1, -1, 1, 1, -1, 1, 1, 1, 1, -1, 1, 1, -1, 1, -1, 1, 1, 1, 1, 1, 1, 1, 1, 1, -1, 1, 1, 1, 1, 1, 1, -1, 1, 1, 1, -1, 1, 1, 1, 1, 1, 1, -1, 1, 1, 1, 1, 1, 1, 1, 1, 1, 1, 1, -1, 1, -1, -1, 1, 1, 1, 1, 1, 1, 1, 1, -1, 1, -1, 1, 1, 1, 1, 1, 1, 1, -1, 1, -1, -1, 1, 1, 1, 1, 1, 1, 1, -1, 1, 1, -1, 1, 1, 1, 1, 1, 1, 1, -1, -1, 1, -1, -1, 1, 1, 1, 1, 1, -1, -1, -1, 1, -1, 1, 1, -1, 1, 1, 1, -1, -1, 1, -1, -1, -1, 1, -1, 1, 1, 1, -1, -1, 1, -1, 1, -1, 1, -1, 1, 1, 1, 1, -1, 1, 1, 1, 1, 1, 1, 1, -1, 1, 1, -1, -1, 1, -1, -1, 1, 1, 1, 1, 1, 1, -1, 1, -1, 1, -1, 1, 1, 1, -1, 1, 1, -1, -1, 1, 1, -1, -1, 1, 1, -1, 1, 1, -1, -1, 1, -1, 1, 1, 1, 1, -1, 1, 1, 1, -1, 1, 1, 1, 1, -1, 1, -1, 1, 1, -1, -1, -1, 1, -1, 1, 1, 1, -1, 1, 1, 1, -1, -1, 1, 1, -1, 1, 1, -1, 1, 1, -1, 1, 1, 1, 1, -1, 1, -1, 1, 1, 1, -1, 1, 1, -1, -1, 1, -1, -1, -1, 1, 1, -1, 1, -1, 1, -1, 1, 1, -1, 1, -1, 1, -1, 1, -1, 1, 1, -1, 1, 1, -1, 1, 1, 1, -1, -1, -1, -1, 1, -1, 1, -1, -1, 1, 1, -1, -1, 1, 1, 1, 1, 1, 1, -1, 1, -1, -1, 1, -1, -1, 1, -1, -1, -1, 1, 1, -1, -1, -1, 1, 1, 1, 1, 1, -1, 1, 1, -1, -1, 1, -1, -1, 1, -1, 1, -1, -1, 1, -1, -1, -1, 1, -1, 1, 1, 1, 1, 1, 1, 1, -1, -1, -1, 1, -1, 1, 1, -1, -1, 1, -1, -1, -1, -1, -1, 1, 1, 1, -1, 1, 1, 1, -1, 1, -1, 1, 1, 1, -1, -1, 1, 1, -1, -1, -1, 1, -1, 1, 1, 1, -1, 1, -1, -1, -1, -1, 1, 1, 1, -1, -1, -1, 1, 1, -1, -1, 1, 1, 1, 1, 1, -1, 1, 1, -1, -1, -1, 1, 1, -1, 1, 1, 1, -1, 1, -1, -1, -1, -1, 1, 1, 1, -1, -1, -1, 1, 1, -1, -1, -1, 1, 1, 1, -1, 1, -1, 1, 1, 1, -1, 1, 1, 1, -1, 1, 1, 1, 1, 1, 1, -1, -1, -1, 1, -1, -1, 1, -1, 1, 1, 1, -1, 1, -1, 1, 1, -1, 1, -1, -1, 1, 1, 1, -1, 1, 1, 1, -1, 1, 1, 1, 1, 1, -1, 1, -1, 1, 1, -1, 1, 1, 1, 1, 1, -1, -1, 1, -1, -1, -1, 1, 1, 1, 1, 1, -1, -1, 1, 1, -1, 1, 1, -1, 1, 1, 1, -1, 1, -1, -1, -1, 1, 1, 1, 1, 1, 1, -1, 1, -1, -1, -1, -1, 1, 1, 1, 1, -1, 1, -1, 1, -1, 1, -1, 1, 1, 1, 1, 1, -1, 1, -1, -1, 1, 1, -1, 1, -1, 1, 1, 1, -1, -1, -1, -1, 1, -1, 1, 1, 1, 1, -1, 1, -1, -1, -1, -1, 1, 1, 1, 1, 1, 1, -1, -1, -1, -1, -1, -1, 1, 1, 1, 1, -1, -1, 1, -1, -1, -1, 1, 1, 1, 1, 1, 1, 1, -1, -1, -1, -1, -1, 1, 1, 1, 1, 1, 1, 1, -1, -1, 1, -1, 1, 1, 1, 1, -1, 1, 1, -1, -1, -1, 1, 1, 1, 1, -1, 1, 1, -1, 1, -1, -1, 1, 1, 1, 1, -1, 1, -1, 1, 1, -1, -1, -1, 1, -1, 1, 1, 1, 1, -1, 1, -1, 1, 1, 1, 1, 1, 1, 1, 1, -1, 1, 1, -1, -1, 1, 1, 1, 1, -1, 1, -1, 1, -1, -1, -1, 1, 1, 1, 1, 1, 1, 1, -1, -1, 1, -1, 1, 1, 1, 1, 1, 1, 1, 1, 1, -1, 1, 1, -1, 1, 1, 1, 1, -1, -1, 1, -1, -1, 1, 1, 1, 1, 1, 1, -1, 1, 1, -1, -1, 1, 1, 1, 1, -1, 1, -1, 1, -1, -1, 1, -1, 1, 1, 1, 1, 1, -1, 1, 1, -1, -1, 1, 1, 1, 1, 1, 1, -1, 1, -1, -1, -1, -1, 1, 1, 1, 1, 1, -1, 1, -1, 1, -1, 1, 1, 1, 1, 1, 1, 1, 1, -1, 1, -1, 1, 1, -1, 1, 1, 1, -1, -1, -1, 1, -1, 1, -1, -1, 1, 1, 1, 1, -1, 1, -1, 1, -1, 1, -1, 1, 1, 1, 1, -1, 1, -1, -1, -1, 1, -1, 1, 1, 1, 1, -1, -1, 1, -1, 1, -1, -1, 1, -1, 1, 1, -1, -1, 1, 1, -1, 1, -1, -1, 1, 1, -1, 1, 1, -1, 1, -1, 1, 1, -1, 1, 1, 1, -1, -1, -1, 1, 1, 1, -1, -1, 1, 1, 1, -1, -1, 1, -1, -1, 1, -1, -1, -1, 1, 1, -1, 1, -1, 1, -1, 1, 1, -1, 1, 1, 1, -1, 1, 1, 1, 1, -1, -1, -1, 1, 1, -1, 1, -1, 1, 1, -1, -1, -1, -1, -1, 1, 1, 1, -1, -1, 1, -1, -1, 1, -1, 1, 1, -1, 1, -1, 1, 1, -1, -1, -1, -1, -1, 1, -1, 1, -1, -1, 1, 1, 1, -1, -1, 1, -1, 1, -1, -1, 1, -1, -1, -1, -1, -1, 1, 1, 1, -1, -1, 1, 1, -1, -1, -1, 1, -1, 1, 1, -1, -1, 1, 1, -1, 1, 1, 1, 1, 1, -1, 1, -1, 1, 1, 1, -1, -1, 1, 1, -1, 1, -1, 1, -1, 1, -1, -1, 1, -1, 1, -1, 1, 1, -1, 1, -1, -1, -1, -1, -1, 1, 1, 1, 1, -1, -1, 1, -1, -1, 1, -1, 1, 1, 1, -1, -1, -1, 1, -1, 1, -1, 1, 1, 1, 1, 1, -1, 1, -1, -1, 1, -1, 1, 1, 1, -1, -1, -1, 1, 1, -1, 1, -1, 1, 1, 1, 1, 1, -1, -1, -1, -1, 1, 1, 1, 1, 1, -1, -1, -1, 1, 1, -1, 1, -1, 1, -1, 1, 1, 1, -1, -1, 1, -1, 1, -1, 1, 1, 1, -1, -1, -1, 1, 1, -1, -1, 1, -1, 1, -1, 1, 1, 1, 1, 1, -1, 1, 1, -1, -1, 1, -1, 1, 1, 1, 1, 1, -1, 1, 1, -1, 1, 1, -1, -1, 1, 1, -1, -1, 1, -1, 1, -1, -1, -1, 1, 1, 1, -1, -1, 1, -1, 1, 1, -1, 1, 1, 1, 1, -1, -1, 1, -1, 1, 1, -1, 1, 1, 1, 1, -1, -1, 1, -1, 1, -1, 1, 1, 1, 1, 1, -1, -1, 1, -1, 1, 1, -1, -1, 1, 1, -1, -1, -1, 1, -1, -1, 1, -1, 1, 1, 1, 1, -1, -1, -1, 1, 1, 1, 1, -1, 1, 1, -1, -1, 1, 1, -1, 1, -1, 1, 1, 1, -1, -1, -1, 1, -1, 1, -1, 1, 1, 1, 1, 1, -1, -1, -1, 1, -1, 1, 1, 1, 1, 1, 1, -1, -1, 1, -1, -1, 1, -1, 1, -1, 1, 1, -1, -1, 1, 1, 1, -1, 1, -1, 1, 1, 1, -1, -1, -1, 1, -1, -1, 1, 1, 1, 1, 1, -1, -1, -1, 1, -1, -1, 1, 1, 1, 1, 1, -1, -1, -1, 1, -1, -1, 1, 1, 1, 1, 1, -1, -1, 1, -1, -1, 1, 1, 1, 1, 1, -1, -1, -1, 1, -1, -1, 1, 1, 1, 1, 1, 1, -1, 1, -1, -1, 1, 1, -1, 1, 1, 1, 1, -1, -1, -1, -1, -1, -1, 1, -1, 1, 1, 1, -1, -1, 1, 1, -1, 1, -1, 1, 1, 1, -1, 1, -1, -1, 1, -1, -1, 1, -1, 1, 1, 1, -1, -1, 1, -1, -1, -1, 1, -1, -1, 1, -1, 1, 1, -1, 1, -1, -1, 1, -1, -1, -1, 1, -1, 1, -1, -1, -1, -1, -1, -1, 1, -1, 1, 1, -1, -1, -1, -1, -1, 1, -1, -1, 1, -1, 1, -1, -1, -1, -1, -1, -1, -1, -1, 1, 1, 1, -1, -1, 1, -1, -1, -1, -1, -1, -1, 1, 1, -1, 1, -1, -1, 1, -1, -1, 1, -1, 1, -1, -1, -1, -1, -1, -1, 1, -1, -1, -1, 1, -1, -1, -1, 1, -1, 1, -1, -1, -1, -1, 1, 1, -1, 1, -1, 1, -1, -1, -1, -1, -1, 1, 1, -1, -1, -1, -1, -1, 1, -1, -1, -1, -1, 1, -1, -1, -1, -1, -1, 1, -1, -1, -1, -1, 1, -1, -1, -1, -1, -1, 1, -1, -1, -1, -1, 1, 1, -1, -1, -1, 1, 1, -1, -1, -1, -1, 1, 1, -1, -1, -1, -1, 1, -1, -1, -1, -1, 1, -1, -1, -1, -1, 1, -1, 1, -1, -1, -1, 1, 1, -1, -1, -1, 1, 1, 1, -1, -1, -1, 1, 1, -1, -1, -1, 1, 1, -1, -1, -1, 1, 1, -1, -1, -1, -1, 1, 1, -1, -1, -1, -1, 1, 1, -1, 1, -1, 1, 1, 1, -1, -1, 1, -1, 1, -1, -1, -1, -1, 1, -1, 1, -1, -1, 1, 1, -1, -1, -1, -1, -1, 1, -1, 1, -1, 1, 1, -1, -1, -1, 1, 1, 1, -1, -1, 1, -1, 1, -1, -1, -1, 1, -1, 1, -1, 1, -1, 1, 1, 1, -1, -1, 1, 1, 1, -1, -1, 1, -1, 1, -1, -1, -1, 1, -1, 1, -1, -1, -1, 1, 1, -1, -1, -1, 1, -1, 1, -1, -1, 1, -1, 1, -1, -1, -1, 1, 1, 1, -1, 1, -1, 1, 1, 1, -1, -1, -1, -1, 1, -1, 1, -1, -1, 1, 1, -1, -1, 1, -1, -1, -1, 1, 1, -1, 1, -1, -1, -1, 1, -1, 1, 1, -1, -1, 1, -1, -1, -1, 1, 1, -1, 1, 1, -1, -1, 1, -1, -1, -1, 1, -1, -1, -1, 1, 1, -1, 1, -1, -1, -1, 1, 1, -1, 1, 1, 1, -1, 1, -1, 1, 1, -1, -1, -1, -1, 1, -1, 1, 1, 1, -1, -1, 1, -1, 1, -1, 1, -1, 1, 1, -1, 1, -1, -1, -1, -1, 1, 1, 1, -1, 1, 1, 1, -1, 1, -1, -1, -1, 1, 1, -1, 1, 1, -1, 1, -1, -1, -1, -1, 1, -1, 1, 1, -1, -1, -1, -1, -1, -1, -1, 1, -1, 1, 1, 1, 1, -1, -1, -1, 1, -1, 1, 1, 1, -1, 1, -1, 1, -1, -1, 1, 1, 1, 1, -1, 1, -1, 1, -1, 1, -1, -1, -1, 1, 1, -1, 1, 1, 1, -1, 1, -1, 1, 1, 1, 1, -1, 1, 1, -1, -1, 1, -1, 1, -1, -1, 1, -1, 1, 1, -1, -1, 1, -1, 1, -1, 1, 1, -1, 1, 1, -1, -1, -1, -1, 1, -1, -1, 1, 1, 1, 1, -1, 1, -1, 1, 1, -1, 1, 1, -1, 1, 1, -1, -1, -1, -1, 1, -1, 1, -1, 1, -1, 1, 1, -1, -1, 1, 1, -1, -1, -1, 1, 1, 1, 1, -1, -1, -1, -1, 1, 1, -1, 1, -1, 1, 1, -1, -1, -1, 1, 1, 1, -1, -1, 1, 1, 1, -1, -1, 1, 1, -1, 1, -1, 1, -1, 1, 1, -1, 1, 1, 1, -1, -1, 1, -1, 1, 1, 1, -1, -1, 1, -1, 1, -1, 1, -1, 1, -1, -1, -1, -1, 1, -1, 1, 1, 1, 1, -1, 1, -1, -1, 1, 1, -1, 1, -1, -1, -1, -1, 1, -1, -1, -1, 1, -1, 1, 1, -1, 1, -1, 1, -1, -1, -1, 1, -1, 1, 1, -1, 1, 1, -1, 1, -1, -1, 1, -1, 1, 1, -1, 1, -1, 1, -1, -1, -1, -1, -1, 1, 1, -1, 1, -1, -1, 1, 1, -1, 1, -1, 1, 1, -1, 1, 1, -1, 1, -1, 1, -1, -1, -1, 1, -1, -1, 1, 1, -1, -1, -1, -1, -1, 1, 1, -1, -1, 1, -1, 1, 1, -1, -1, -1, 1, 1, -1, -1, 1, 1, -1, -1, 1, -1, -1, 1, 1, -1, -1, 1, -1, 1, 1, -1, -1, -1, 1, 1, -1, 1, 1, 1, 1, 1, -1, -1, 1, 1, 1, -1, -1, -1, 1, 1, 1, 1, -1, 1, 1, -1, -1, 1, -1, 1, 1, 1, -1, -1, -1, 1, 1, -1, -1, -1, 1, 1, 1, -1, 1, 1, 1, 1, -1, -1, 1, -1, -1, 1, -1, -1, 1, -1, 1, -1, -1, -1, -1, 1, 1, 1, -1, -1, 1, 1, -1, -1, 1, -1, 1, -1, 1, 1, -1, 1, -1, -1, -1, -1, -1, 1, 1, -1, -1, -1, 1, -1, -1, -1, -1, -1, 1, -1, 1, 1, -1, -1, -1, -1, -1, 1, 1, 1, 1, -1, 1, -1, 1, -1, 1, -1, -1, -1, 1, 1, 1, -1, -1, -1, 1, -1, -1, -1, -1, 1, -1, 1, -1, -1, -1, -1, -1, 1, -1, 1, 1, 1, 1, -1, -1, -1, 1, -1, -1, -1, -1, 1, 1, 1, -1, -1, -1, -1, -1, 1, -1, 1, 1, -1, 1, -1, -1, 1, -1, -1, 1, -1, -1, 1, -1, 1, -1, -1, -1, 1, -1, -1, -1, 1, 1, -1, 1, 1, -1, 1, -1, -1, 1, -1, 1, -1, -1, 1, 1, -1, -1, 1, -1, -1, -1, -1, 1, -1, 1, 1, -1, -1, 1, -1, -1, -1, 1, 1, -1, 1, -1, 1, -1, -1, 1, 1, -1, -1, 1, -1, -1, -1, 1, -1, 1, -1, 1, 1, -1, -1, -1, 1, 1, -1, 1, -1, 1, 1, -1, -1, 1, 1, -1
BQP_DATA, 2897, 13447, -6320.000000, -9074.000000, -18010.000000, -20764.000000, 4096.020297, 4943, 1637
